(set-info :smt-lib-version 2.6)
(set-option :produce-assignments true)
(set-logic BPA)
(set-info :source | Kaya Guvendi and Ethan Bogle |)
(set-info :category "crafted")
(set-info :status unsat)
(declare-const p0 Pointer)
(declare-const p1 Pointer)
(declare-const p2 Pointer)
(declare-const p3 Pointer)
(declare-const p4 Pointer)
(declare-const p5 Pointer)
(declare-const p6 Pointer)
(declare-const p7 Pointer)
(declare-const p8 Pointer)
(declare-const p9 Pointer)
(declare-const p10 Pointer)
(declare-const p11 Pointer)
(declare-const p12 Pointer)
(declare-const p13 Pointer)
(declare-const p14 Pointer)
(declare-const p15 Pointer)
(declare-const p16 Pointer)
(declare-const p17 Pointer)
(declare-const p18 Pointer)
(declare-const p19 Pointer)
(declare-const p20 Pointer)
(declare-const p21 Pointer)
(declare-const p22 Pointer)
(declare-const p23 Pointer)
(declare-const p24 Pointer)
(declare-const p25 Pointer)
(declare-const p26 Pointer)
(declare-const p27 Pointer)
(declare-const p28 Pointer)
(declare-const p29 Pointer)
(declare-const p30 Pointer)
(declare-const p31 Pointer)
(declare-const p32 Pointer)
(declare-const p33 Pointer)
(declare-const p34 Pointer)
(declare-const p35 Pointer)
(declare-const p36 Pointer)
(declare-const p37 Pointer)
(declare-const p38 Pointer)
(declare-const p39 Pointer)
(declare-const p40 Pointer)
(declare-const p41 Pointer)
(declare-const p42 Pointer)
(declare-const p43 Pointer)
(declare-const p44 Pointer)
(declare-const p45 Pointer)
(declare-const p46 Pointer)
(declare-const p47 Pointer)
(declare-const p48 Pointer)
(declare-const p49 Pointer)
(declare-const p50 Pointer)
(declare-const p51 Pointer)
(declare-const p52 Pointer)
(declare-const p53 Pointer)
(declare-const p54 Pointer)
(declare-const p55 Pointer)
(declare-const p56 Pointer)
(declare-const p57 Pointer)
(declare-const p58 Pointer)
(declare-const p59 Pointer)
(declare-const p60 Pointer)
(declare-const p61 Pointer)
(declare-const p62 Pointer)
(declare-const p63 Pointer)
(assert (not (= (+ (Base (Block p0)) (Offset p0)) 0)))
(assert (not (= (+ (Base (Block p1)) (Offset p1)) 0)))
(assert (not (= (+ (Base (Block p2)) (Offset p2)) 0)))
(assert (not (= (+ (Base (Block p3)) (Offset p3)) 0)))
(assert (not (= (+ (Base (Block p4)) (Offset p4)) 0)))
(assert (not (= (+ (Base (Block p5)) (Offset p5)) 0)))
(assert (not (= (+ (Base (Block p6)) (Offset p6)) 0)))
(assert (not (= (+ (Base (Block p7)) (Offset p7)) 0)))
(assert (not (= (+ (Base (Block p8)) (Offset p8)) 0)))
(assert (not (= (+ (Base (Block p9)) (Offset p9)) 0)))
(assert (not (= (+ (Base (Block p10)) (Offset p10)) 0)))
(assert (not (= (+ (Base (Block p11)) (Offset p11)) 0)))
(assert (not (= (+ (Base (Block p12)) (Offset p12)) 0)))
(assert (not (= (+ (Base (Block p13)) (Offset p13)) 0)))
(assert (not (= (+ (Base (Block p14)) (Offset p14)) 0)))
(assert (not (= (+ (Base (Block p15)) (Offset p15)) 0)))
(assert (not (= (+ (Base (Block p16)) (Offset p16)) 0)))
(assert (not (= (+ (Base (Block p17)) (Offset p17)) 0)))
(assert (not (= (+ (Base (Block p18)) (Offset p18)) 0)))
(assert (not (= (+ (Base (Block p19)) (Offset p19)) 0)))
(assert (not (= (+ (Base (Block p20)) (Offset p20)) 0)))
(assert (not (= (+ (Base (Block p21)) (Offset p21)) 0)))
(assert (not (= (+ (Base (Block p22)) (Offset p22)) 0)))
(assert (not (= (+ (Base (Block p23)) (Offset p23)) 0)))
(assert (not (= (+ (Base (Block p24)) (Offset p24)) 0)))
(assert (not (= (+ (Base (Block p25)) (Offset p25)) 0)))
(assert (not (= (+ (Base (Block p26)) (Offset p26)) 0)))
(assert (not (= (+ (Base (Block p27)) (Offset p27)) 0)))
(assert (not (= (+ (Base (Block p28)) (Offset p28)) 0)))
(assert (not (= (+ (Base (Block p29)) (Offset p29)) 0)))
(assert (not (= (+ (Base (Block p30)) (Offset p30)) 0)))
(assert (not (= (+ (Base (Block p31)) (Offset p31)) 0)))
(assert (not (= (+ (Base (Block p32)) (Offset p32)) 0)))
(assert (not (= (+ (Base (Block p33)) (Offset p33)) 0)))
(assert (not (= (+ (Base (Block p34)) (Offset p34)) 0)))
(assert (not (= (+ (Base (Block p35)) (Offset p35)) 0)))
(assert (not (= (+ (Base (Block p36)) (Offset p36)) 0)))
(assert (not (= (+ (Base (Block p37)) (Offset p37)) 0)))
(assert (not (= (+ (Base (Block p38)) (Offset p38)) 0)))
(assert (not (= (+ (Base (Block p39)) (Offset p39)) 0)))
(assert (not (= (+ (Base (Block p40)) (Offset p40)) 0)))
(assert (not (= (+ (Base (Block p41)) (Offset p41)) 0)))
(assert (not (= (+ (Base (Block p42)) (Offset p42)) 0)))
(assert (not (= (+ (Base (Block p43)) (Offset p43)) 0)))
(assert (not (= (+ (Base (Block p44)) (Offset p44)) 0)))
(assert (not (= (+ (Base (Block p45)) (Offset p45)) 0)))
(assert (not (= (+ (Base (Block p46)) (Offset p46)) 0)))
(assert (not (= (+ (Base (Block p47)) (Offset p47)) 0)))
(assert (not (= (+ (Base (Block p48)) (Offset p48)) 0)))
(assert (not (= (+ (Base (Block p49)) (Offset p49)) 0)))
(assert (not (= (+ (Base (Block p50)) (Offset p50)) 0)))
(assert (not (= (+ (Base (Block p51)) (Offset p51)) 0)))
(assert (not (= (+ (Base (Block p52)) (Offset p52)) 0)))
(assert (not (= (+ (Base (Block p53)) (Offset p53)) 0)))
(assert (not (= (+ (Base (Block p54)) (Offset p54)) 0)))
(assert (not (= (+ (Base (Block p55)) (Offset p55)) 0)))
(assert (not (= (+ (Base (Block p56)) (Offset p56)) 0)))
(assert (not (= (+ (Base (Block p57)) (Offset p57)) 0)))
(assert (not (= (+ (Base (Block p58)) (Offset p58)) 0)))
(assert (not (= (+ (Base (Block p59)) (Offset p59)) 0)))
(assert (not (= (+ (Base (Block p60)) (Offset p60)) 0)))
(assert (not (= (+ (Base (Block p61)) (Offset p61)) 0)))
(assert (not (= (+ (Base (Block p62)) (Offset p62)) 0)))
(assert (not (= (+ (Base (Block p63)) (Offset p63)) 0)))
(assert (<= (- 0 (+ (Base (Block p0)) (Offset p0))) -8))
(assert (<= (- (+ (Base (Block p0)) (Offset p0)) (+ (Base (Block p1)) (Offset p1))) -2))
(assert (<= (- (+ (Base (Block p1)) (Offset p1)) (+ (Base (Block p2)) (Offset p2))) -8))
(assert (<= (- (+ (Base (Block p2)) (Offset p2)) (+ (Base (Block p3)) (Offset p3))) -8))
(assert (<= (- (+ (Base (Block p3)) (Offset p3)) (+ (Base (Block p4)) (Offset p4))) -8))
(assert (<= (- (+ (Base (Block p4)) (Offset p4)) (+ (Base (Block p5)) (Offset p5))) -8))
(assert (<= (- (+ (Base (Block p5)) (Offset p5)) (+ (Base (Block p6)) (Offset p6))) -8))
(assert (<= (- (+ (Base (Block p6)) (Offset p6)) (+ (Base (Block p7)) (Offset p7))) -8))
(assert (<= (- (+ (Base (Block p7)) (Offset p7)) (+ (Base (Block p8)) (Offset p8))) -8))
(assert (<= (- (+ (Base (Block p8)) (Offset p8)) (+ (Base (Block p9)) (Offset p9))) -8))
(assert (<= (- (+ (Base (Block p9)) (Offset p9)) (+ (Base (Block p10)) (Offset p10))) -8))
(assert (<= (- (+ (Base (Block p10)) (Offset p10)) (+ (Base (Block p11)) (Offset p11))) -8))
(assert (<= (- (+ (Base (Block p11)) (Offset p11)) (+ (Base (Block p12)) (Offset p12))) -8))
(assert (<= (- (+ (Base (Block p12)) (Offset p12)) (+ (Base (Block p13)) (Offset p13))) -8))
(assert (<= (- (+ (Base (Block p13)) (Offset p13)) (+ (Base (Block p14)) (Offset p14))) -8))
(assert (<= (- (+ (Base (Block p14)) (Offset p14)) (+ (Base (Block p15)) (Offset p15))) -8))
(assert (<= (- (+ (Base (Block p15)) (Offset p15)) (+ (Base (Block p16)) (Offset p16))) -8))
(assert (<= (- (+ (Base (Block p16)) (Offset p16)) (+ (Base (Block p17)) (Offset p17))) -8))
(assert (<= (- (+ (Base (Block p17)) (Offset p17)) (+ (Base (Block p18)) (Offset p18))) -8))
(assert (<= (- (+ (Base (Block p18)) (Offset p18)) (+ (Base (Block p19)) (Offset p19))) -8))
(assert (<= (- (+ (Base (Block p19)) (Offset p19)) (+ (Base (Block p20)) (Offset p20))) -8))
(assert (<= (- (+ (Base (Block p20)) (Offset p20)) (+ (Base (Block p21)) (Offset p21))) -8))
(assert (<= (- (+ (Base (Block p21)) (Offset p21)) (+ (Base (Block p22)) (Offset p22))) -8))
(assert (<= (- (+ (Base (Block p22)) (Offset p22)) (+ (Base (Block p23)) (Offset p23))) -8))
(assert (<= (- (+ (Base (Block p23)) (Offset p23)) (+ (Base (Block p24)) (Offset p24))) -8))
(assert (<= (- (+ (Base (Block p24)) (Offset p24)) (+ (Base (Block p25)) (Offset p25))) -8))
(assert (<= (- (+ (Base (Block p25)) (Offset p25)) (+ (Base (Block p26)) (Offset p26))) -8))
(assert (<= (- (+ (Base (Block p26)) (Offset p26)) (+ (Base (Block p27)) (Offset p27))) -8))
(assert (<= (- (+ (Base (Block p27)) (Offset p27)) (+ (Base (Block p28)) (Offset p28))) -8))
(assert (<= (- (+ (Base (Block p28)) (Offset p28)) (+ (Base (Block p29)) (Offset p29))) -8))
(assert (<= (- (+ (Base (Block p29)) (Offset p29)) (+ (Base (Block p30)) (Offset p30))) -8))
(assert (<= (- (+ (Base (Block p30)) (Offset p30)) (+ (Base (Block p31)) (Offset p31))) -8))
(assert (<= (- (+ (Base (Block p31)) (Offset p31)) (+ (Base (Block p32)) (Offset p32))) -8))
(assert (<= (- (+ (Base (Block p32)) (Offset p32)) (+ (Base (Block p33)) (Offset p33))) -8))
(assert (<= (- (+ (Base (Block p33)) (Offset p33)) (+ (Base (Block p34)) (Offset p34))) -8))
(assert (<= (- (+ (Base (Block p34)) (Offset p34)) (+ (Base (Block p35)) (Offset p35))) -8))
(assert (<= (- (+ (Base (Block p35)) (Offset p35)) (+ (Base (Block p36)) (Offset p36))) -8))
(assert (<= (- (+ (Base (Block p36)) (Offset p36)) (+ (Base (Block p37)) (Offset p37))) -8))
(assert (<= (- (+ (Base (Block p37)) (Offset p37)) (+ (Base (Block p38)) (Offset p38))) -8))
(assert (<= (- (+ (Base (Block p38)) (Offset p38)) (+ (Base (Block p39)) (Offset p39))) -8))
(assert (<= (- (+ (Base (Block p39)) (Offset p39)) (+ (Base (Block p40)) (Offset p40))) -8))
(assert (<= (- (+ (Base (Block p40)) (Offset p40)) (+ (Base (Block p41)) (Offset p41))) -8))
(assert (<= (- (+ (Base (Block p41)) (Offset p41)) (+ (Base (Block p42)) (Offset p42))) -8))
(assert (<= (- (+ (Base (Block p42)) (Offset p42)) (+ (Base (Block p43)) (Offset p43))) -8))
(assert (<= (- (+ (Base (Block p43)) (Offset p43)) (+ (Base (Block p44)) (Offset p44))) -8))
(assert (<= (- (+ (Base (Block p44)) (Offset p44)) (+ (Base (Block p45)) (Offset p45))) -8))
(assert (<= (- (+ (Base (Block p45)) (Offset p45)) (+ (Base (Block p46)) (Offset p46))) -8))
(assert (<= (- (+ (Base (Block p46)) (Offset p46)) (+ (Base (Block p47)) (Offset p47))) -8))
(assert (<= (- (+ (Base (Block p47)) (Offset p47)) (+ (Base (Block p48)) (Offset p48))) -8))
(assert (<= (- (+ (Base (Block p48)) (Offset p48)) (+ (Base (Block p49)) (Offset p49))) -8))
(assert (<= (- (+ (Base (Block p49)) (Offset p49)) (+ (Base (Block p50)) (Offset p50))) -8))
(assert (<= (- (+ (Base (Block p50)) (Offset p50)) (+ (Base (Block p51)) (Offset p51))) -8))
(assert (<= (- (+ (Base (Block p51)) (Offset p51)) (+ (Base (Block p52)) (Offset p52))) -8))
(assert (<= (- (+ (Base (Block p52)) (Offset p52)) (+ (Base (Block p53)) (Offset p53))) -8))
(assert (<= (- (+ (Base (Block p53)) (Offset p53)) (+ (Base (Block p54)) (Offset p54))) -8))
(assert (<= (- (+ (Base (Block p54)) (Offset p54)) (+ (Base (Block p55)) (Offset p55))) -8))
(assert (<= (- (+ (Base (Block p55)) (Offset p55)) (+ (Base (Block p56)) (Offset p56))) -8))
(assert (<= (- (+ (Base (Block p56)) (Offset p56)) (+ (Base (Block p57)) (Offset p57))) -8))
(assert (<= (- (+ (Base (Block p57)) (Offset p57)) (+ (Base (Block p58)) (Offset p58))) -8))
(assert (<= (- (+ (Base (Block p58)) (Offset p58)) (+ (Base (Block p59)) (Offset p59))) -8))
(assert (<= (- (+ (Base (Block p59)) (Offset p59)) (+ (Base (Block p60)) (Offset p60))) -8))
(assert (<= (- (+ (Base (Block p60)) (Offset p60)) (+ (Base (Block p61)) (Offset p61))) -8))
(assert (<= (- (+ (Base (Block p61)) (Offset p61)) (+ (Base (Block p62)) (Offset p62))) -8))
(assert (<= (- (+ (Base (Block p62)) (Offset p62)) (+ (Base (Block p63)) (Offset p63))) -8))
(declare-const end Pointer)
(assert (= (+ (+ (Base (Block p63)) (Offset p63)) 7) (+ (Base (Block end)) (Offset end))))
(check-sat)
(exit)